
  32    4
  10   10   10   10

   0   0   0   0   0  20 2 3 4 5 7 8 9 10 11 12 22 23 24 25 26 27 28 29 30 31 
   6   0   1   1   1   4 19 18 13 6 
   7   1   0   7   4   3 19 17 16 
   4   0   1   2   5   3 21 18 13 
   9   5   4   0   4   2 15 14 
  10   5   5   0   4   1 20 
   7   3   0   9   6   1 14 
   8   0   4   1   3   1 14 
  10   2   0   2   2   1 17 
   3   6   2   3   0   1 16 
   6   0   3   4   7   1 15 
   4   3   7   0   1   1 13 
   8  10   8   0   2   1 32
   4   0   5   5   7   1 32
   7   0   2   3   2   1 32
   4   0   4   6   4   1 32
   2   2   0   6   2   1 32
   2   4   0   2   2   1 32
   2   5   0   3   3   1 32
   1   4   3   4   0   1 32
   7   3   0   5   3   1 32
   1   0   8   3   5   1 32
  10   0   1   1   9   1 32
   7   3   6   0   7   1 32
   2   6   4   5   0   1 32
   4   2   5   0   6   1 32
   3   5   0   4   4   1 32
   1   5   5   6   0   1 32
   8   3   2   0   3   1 32
   8   2   5   6   0   1 32
   7   5   3   4   0   1 32
   0   0   0   0   0   0 
